
Gurobi 11.0.0 (win64, C++) logging started Mon Jul 28 17:09:05 2025

Set parameter TokenServer to value "141.76.38.119"
### START HEURISTIC APPROACH APPROACH ###
ProblemVariant: 1
### START PREPROCESSING ###
## Start start solution procedure ##
Not enough vehicles for start solution, copying existing vehicle(s)...
Copied 1 vehicle(s). Total vehicles now: 5
Start solution with 5 Vehicles and total costs 396.674 in 4.42919 s.
### END PREPROCESSING ###
Route 0 0-8-0 : weight util 0.482353 | volume util 0.229378 | infeasible with packing heuristic | feasible with CP model
Route 1 0-4-15-14-13-0 : weight util 0.882353 | volume util 0.477533 | infeasible with packing heuristic | feasible with CP model
Route 2 0-2-5-7-9-3-0 : weight util 0.870588 | volume util 0.425022 | infeasible with packing heuristic | feasible with CP model
Route 3 0-6-20-11-10-19-0 : weight util 0.894118 | volume util 0.598378 | infeasible with packing heuristic | feasible with CP model
Route 4 0-17-16-18-12-1-0 : weight util 0.741176 | volume util 0.510422 | infeasible with packing heuristic | feasible with CP model
